810.58,46.45,53.05
879.84,42.8,48.88
848.85,44.36,50.66
841.35,44.75,51.11
831.25,45.3,51.73
798.77,47.14,53.84
999.64,37.67,43.02
869.8,43.29,49.44
870.68,43.25,49.39
931.76,40.41,46.15
851.02,44.24,50.53
941.78,39.98,45.66
882.34,42.67,48.74
897.45,41.96,47.92
948.59,39.69,45.33
928.49,40.55,46.32
913.04,41.24,47.1
847.7,44.42,50.73
878.71,42.85,48.94
860.72,43.75,49.96
